 # Version information for this restart file 
 # current date 2021-11-19 04:46:35.542
 # current working dir /project2/depablo/dongyue/peo_li3/iter1_md/set1
 # Program compiled at                               Thu Feb 6 11:24:43 CST 2020
 # Program compiled on                                    midway2-0300.rcc.local
 # Program compiled for                               Linux-x86-64-intel-minimal
 # Source code revision number                                       git:e635599
 &GLOBAL
   PRINT_LEVEL  LOW
   PROJECT_NAME peo_md
   RUN_TYPE  MD
 &END GLOBAL
 &MOTION
   &MD
     ENSEMBLE  NPT_I
     STEPS  4000000
     TIMESTEP     2.4999999999999997E-01
     STEP_START_VAL  4000000
     TIME_START_VAL     9.9999999998330942E+05
     ECONS_START_VAL     7.9461119764313870E-01
     TEMPERATURE     5.0000000000000000E+02
     &BAROSTAT
       PRESSURE     1.0132500000000000E+00
       TIMECON     9.9999999999999989E+02
       VIRIAL  XYZ
       &VELOCITY
            -8.8657254541448419E-07
       &END VELOCITY
       &MASS
             4.2866469973986635E+09
       &END MASS
       &THERMOSTAT
         TYPE  NOSE
         &NOSE
           LENGTH  3
           YOSHIDA  3
           TIMECON     9.9999999999999982E+00
           MTS  2
           &COORD
                 5.2150055964745690E+01   -2.5744983079902863E+02    1.7914898547839866E+02
           &END COORD
           &VELOCITY
                -1.7766003487698172E-03    1.6067455631072979E-03    3.1727308906025226E-03
           &END VELOCITY
           &MASS
                 2.7062165387617819E+02    2.7062165387617819E+02    2.7062165387617819E+02
           &END MASS
           &FORCE
                 6.5994109269877420E-06   -2.6946925857614711E-06   -3.2693700804455193E-06
           &END FORCE
         &END NOSE
       &END THERMOSTAT
     &END BAROSTAT
     &THERMOSTAT
       &NOSE
         LENGTH  3
         YOSHIDA  3
         TIMECON     9.9999999999999982E+00
         MTS  2
         &COORD
              -3.4739680031569548E-01   -3.4664535084909937E+02    4.8141573597180746E+02
         &END COORD
         &VELOCITY
               3.0547220546078983E-05   -1.4289892548594241E-04   -8.1598458348959622E-04
         &END VELOCITY
         &MASS
               4.2785283477823774E+05    2.7062165387617819E+02    2.7062165387617819E+02
         &END MASS
         &FORCE
              -2.8610008276909813E-08   -4.3757186130439677E-06   -5.8305812821054711E-06
         &END FORCE
       &END NOSE
     &END THERMOSTAT
     &AVERAGES  T
       &RESTART_AVERAGES
         ITIMES_START  1
         AVECPU     1.1332476912260029E-02
         AVEHUGONIOT     0.0000000000000000E+00
         AVETEMP_BARO     4.9962148808016275E+02
         AVEPOT     2.2021717460377233E-01
         AVEKIN     1.2515901508017973E+00
         AVETEMP     4.9996260491873943E+02
         AVEKIN_QM     0.0000000000000000E+00
         AVETEMP_QM     0.0000000000000000E+00
         AVEVOL     4.3918944776272998E+04
         AVECELL_A     3.5277202301582193E+01
         AVECELL_B     3.5277202301582193E+01
         AVECELL_C     3.5277202301582193E+01
         AVEALPHA     9.0000000000000000E+01
         AVEBETA     9.0000000000000000E+01
         AVEGAMMA     9.0000000000000000E+01
         AVE_ECONS     5.0831573295329446E-01
         AVE_PRESS     1.8874664605053038E+01
         AVE_PXX     5.8860561047929984E+01
       &END RESTART_AVERAGES
     &END AVERAGES
     &PRINT
       &ENERGY  SILENT
         &EACH
           MD  400
         &END EACH
       &END ENERGY
       &COEFFICIENTS  SILENT
         &EACH
           MD  400
         &END EACH
       &END COEFFICIENTS
       &PROGRAM_RUN_INFO  SILENT
         &EACH
           MD  4000
         &END EACH
       &END PROGRAM_RUN_INFO
     &END PRINT
   &END MD
   &PRINT
     &TRAJECTORY  SILENT
       FORMAT  DCD
       &EACH
         MD  4000
       &END EACH
     &END TRAJECTORY
     &CELL  SILENT
       &EACH
         MD  4000
       &END EACH
     &END CELL
     &VELOCITIES  OFF
     &END VELOCITIES
     &FORCES  OFF
     &END FORCES
     &RESTART  SILENT
       &EACH
         MD  4000
       &END EACH
     &END RESTART
     &RESTART_HISTORY  OFF
     &END RESTART_HISTORY
   &END PRINT
 &END MOTION
 &FORCE_EVAL
   METHOD  FIST
   STRESS_TENSOR  ANALYTICAL
   &MM
     &FORCEFIELD
       VDW_SCALE14     5.0000000000000000E-01
       EI_SCALE14     5.0000000000000000E-01
       SHIFT_CUTOFF  T
       &SPLINE
         RCUT_NB     1.2000000000000000E+01
         EMAX_SPLINE     1.0000000000000000E+05
       &END SPLINE
       &NONBONDED
         &LENNARD-JONES
           ATOMS CG331 CG331
           EPSILON     3.3212449852452714E+01
           SIGMA     3.5000030000000000E+00
         &END LENNARD-JONES
         &LENNARD-JONES
           ATOMS OG301 CG331
           EPSILON     4.8369404239662948E+01
           SIGMA     3.1859070000000003E+00
         &END LENNARD-JONES
         &LENNARD-JONES
           ATOMS OG301 OG301
           EPSILON     7.0450651202172423E+01
           SIGMA     2.9000000000000004E+00
         &END LENNARD-JONES
         &LENNARD-JONES
           ATOMS CG321 CG331
           EPSILON     3.3212449852452714E+01
           SIGMA     3.5000030000000000E+00
         &END LENNARD-JONES
         &LENNARD-JONES
           ATOMS CG321 OG301
           EPSILON     4.8369404239662948E+01
           SIGMA     3.1859070000000003E+00
         &END LENNARD-JONES
         &LENNARD-JONES
           ATOMS CG321 CG321
           EPSILON     3.3212449852452714E+01
           SIGMA     3.5000030000000000E+00
         &END LENNARD-JONES
         &LENNARD-JONES
           ATOMS HGA3 CG331
           EPSILON     2.2393242703547660E+01
           SIGMA     2.9580419999999998E+00
         &END LENNARD-JONES
         &LENNARD-JONES
           ATOMS HGA3 OG301
           EPSILON     3.2613619317234246E+01
           SIGMA     2.6925810000000001E+00
         &END LENNARD-JONES
         &LENNARD-JONES
           ATOMS HGA3 CG321
           EPSILON     2.2393242703547660E+01
           SIGMA     2.9580419999999998E+00
         &END LENNARD-JONES
         &LENNARD-JONES
           ATOMS HGA3 HGA3
           EPSILON     1.5096568114751232E+01
           SIGMA     2.5000040000000001E+00
         &END LENNARD-JONES
         &LENNARD-JONES
           ATOMS HGA2 CG331
           EPSILON     2.2393242703547660E+01
           SIGMA     2.9580419999999998E+00
         &END LENNARD-JONES
         &LENNARD-JONES
           ATOMS HGA2 OG301
           EPSILON     3.2613619317234246E+01
           SIGMA     2.6925810000000001E+00
         &END LENNARD-JONES
         &LENNARD-JONES
           ATOMS HGA2 CG321
           EPSILON     2.2393242703547660E+01
           SIGMA     2.9580419999999998E+00
         &END LENNARD-JONES
         &LENNARD-JONES
           ATOMS HGA2 HGA3
           EPSILON     1.5096568114751232E+01
           SIGMA     2.5000040000000001E+00
         &END LENNARD-JONES
         &LENNARD-JONES
           ATOMS HGA2 HGA2
           EPSILON     1.5096568114751232E+01
           SIGMA     2.5000040000000001E+00
         &END LENNARD-JONES
         &LENNARD-JONES
           ATOMS LIT CG331
           EPSILON     1.7476793687510341E+01
           SIGMA     2.7281100000000000E+00
         &END LENNARD-JONES
         &LENNARD-JONES
           ATOMS LIT OG301
           EPSILON     3.0316424869106264E+01
           SIGMA     2.4113639999999998E+00
         &END LENNARD-JONES
         &LENNARD-JONES
           ATOMS LIT CG321
           EPSILON     1.7476793687510341E+01
           SIGMA     2.7281100000000000E+00
         &END LENNARD-JONES
         &LENNARD-JONES
           ATOMS LIT HGA3
           EPSILON     1.1785387508249128E+01
           SIGMA     2.3056730000000001E+00
         &END LENNARD-JONES
         &LENNARD-JONES
           ATOMS LIT HGA2
           EPSILON     1.1785387508249128E+01
           SIGMA     2.3056730000000001E+00
         &END LENNARD-JONES
         &LENNARD-JONES
           ATOMS LIT LIT
           EPSILON     9.1988421712550839E+00
           SIGMA     2.1264509999999999E+00
         &END LENNARD-JONES
         &LENNARD-JONES
           ATOMS FTF CG331
           EPSILON     2.9760367943546260E+01
           SIGMA     3.2132580000000002E+00
         &END LENNARD-JONES
         &LENNARD-JONES
           ATOMS FTF OG301
           EPSILON     4.3347279246822360E+01
           SIGMA     2.9248920000000003E+00
         &END LENNARD-JONES
         &LENNARD-JONES
           ATOMS FTF CG321
           EPSILON     2.9760367943546260E+01
           SIGMA     3.2132580000000002E+00
         &END LENNARD-JONES
         &LENNARD-JONES
           ATOMS FTF HGA3
           EPSILON     2.0063339024504391E+01
           SIGMA     2.7157000000000000E+00
         &END LENNARD-JONES
         &LENNARD-JONES
           ATOMS FTF HGA2
           EPSILON     2.0063339024504391E+01
           SIGMA     2.7157000000000000E+00
         &END LENNARD-JONES
         &LENNARD-JONES
           ATOMS FTF LIT
           EPSILON     1.5665205513740196E+01
           SIGMA     2.5046010000000001E+00
         &END LENNARD-JONES
         &LENNARD-JONES
           ATOMS FTF FTF
           EPSILON     2.6670603669393842E+01
           SIGMA     2.9499970000000002E+00
         &END LENNARD-JONES
         &LENNARD-JONES
           ATOMS CTF CG331
           EPSILON     3.3212449852452714E+01
           SIGMA     3.5000030000000000E+00
         &END LENNARD-JONES
         &LENNARD-JONES
           ATOMS CTF OG301
           EPSILON     4.8369404239662948E+01
           SIGMA     3.1859070000000003E+00
         &END LENNARD-JONES
         &LENNARD-JONES
           ATOMS CTF CG321
           EPSILON     3.3212449852452714E+01
           SIGMA     3.5000030000000000E+00
         &END LENNARD-JONES
         &LENNARD-JONES
           ATOMS CTF HGA3
           EPSILON     2.2393242703547660E+01
           SIGMA     2.9580419999999998E+00
         &END LENNARD-JONES
         &LENNARD-JONES
           ATOMS CTF HGA2
           EPSILON     2.2393242703547660E+01
           SIGMA     2.9580419999999998E+00
         &END LENNARD-JONES
         &LENNARD-JONES
           ATOMS CTF LIT
           EPSILON     1.7476793687510341E+01
           SIGMA     2.7281100000000000E+00
         &END LENNARD-JONES
         &LENNARD-JONES
           ATOMS CTF FTF
           EPSILON     2.9760367943546260E+01
           SIGMA     3.2132580000000002E+00
         &END LENNARD-JONES
         &LENNARD-JONES
           ATOMS CTF CTF
           EPSILON     3.3212449852452714E+01
           SIGMA     3.5000030000000000E+00
         &END LENNARD-JONES
         &LENNARD-JONES
           ATOMS STF CG331
           EPSILON     6.4638472477993190E+01
           SIGMA     3.5249120000000000E+00
         &END LENNARD-JONES
         &LENNARD-JONES
           ATOMS STF OG301
           EPSILON     9.4142198763588681E+01
           SIGMA     3.2085810000000001E+00
         &END LENNARD-JONES
         &LENNARD-JONES
           ATOMS STF CG321
           EPSILON     6.4638472477993190E+01
           SIGMA     3.5249120000000000E+00
         &END LENNARD-JONES
         &LENNARD-JONES
           ATOMS STF HGA3
           EPSILON     4.3578759957915224E+01
           SIGMA     2.9790939999999999E+00
         &END LENNARD-JONES
         &LENNARD-JONES
           ATOMS STF HGA2
           EPSILON     4.3578759957915224E+01
           SIGMA     2.9790939999999999E+00
         &END LENNARD-JONES
         &LENNARD-JONES
           ATOMS STF LIT
           EPSILON     3.4017600151906102E+01
           SIGMA     2.7475230000000002E+00
         &END LENNARD-JONES
         &LENNARD-JONES
           ATOMS STF FTF
           EPSILON     5.7925531856300474E+01
           SIGMA     3.2361270000000006E+00
         &END LENNARD-JONES
         &LENNARD-JONES
           ATOMS STF CTF
           EPSILON     6.4638472477993190E+01
           SIGMA     3.5249120000000000E+00
         &END LENNARD-JONES
         &LENNARD-JONES
           ATOMS STF STF
           EPSILON     1.2580473428959360E+02
           SIGMA     3.5500000000000003E+00
         &END LENNARD-JONES
         &LENNARD-JONES
           ATOMS OTF CG331
           EPSILON     5.9243965471655414E+01
           SIGMA     3.2186919999999999E+00
         &END LENNARD-JONES
         &LENNARD-JONES
           ATOMS OTF OG301
           EPSILON     8.6281918965174881E+01
           SIGMA     2.9298449999999998E+00
         &END LENNARD-JONES
         &LENNARD-JONES
           ATOMS OTF CG321
           EPSILON     5.9243965471655414E+01
           SIGMA     3.2186919999999999E+00
         &END LENNARD-JONES
         &LENNARD-JONES
           ATOMS OTF HGA3
           EPSILON     3.9940487042260173E+01
           SIGMA     2.7202970000000004E+00
         &END LENNARD-JONES
         &LENNARD-JONES
           ATOMS OTF HGA2
           EPSILON     3.9940487042260173E+01
           SIGMA     2.7202970000000004E+00
         &END LENNARD-JONES
         &LENNARD-JONES
           ATOMS OTF LIT
           EPSILON     2.8856586732409820E+01
           SIGMA     2.3489030000000004E+00
         &END LENNARD-JONES
         &LENNARD-JONES
           ATOMS OTF FTF
           EPSILON     5.3089597870208493E+01
           SIGMA     2.9549949999999998E+00
         &END LENNARD-JONES
         &LENNARD-JONES
           ATOMS OTF CTF
           EPSILON     5.9243965471655414E+01
           SIGMA     3.2186919999999999E+00
         &END LENNARD-JONES
         &LENNARD-JONES
           ATOMS OTF STF
           EPSILON     1.1530255507109831E+02
           SIGMA     3.2416060000000000E+00
         &END LENNARD-JONES
         &LENNARD-JONES
           ATOMS OTF OTF
           EPSILON     1.0567597680325862E+02
           SIGMA     2.9600019999999998E+00
         &END LENNARD-JONES
         &LENNARD-JONES
           ATOMS NTF CG331
           EPSILON     5.3300949823815017E+01
           SIGMA     3.3726840000000000E+00
         &END LENNARD-JONES
         &LENNARD-JONES
           ATOMS NTF OG301
           EPSILON     7.7631585435422409E+01
           SIGMA     3.0700189999999998E+00
         &END LENNARD-JONES
         &LENNARD-JONES
           ATOMS NTF CG321
           EPSILON     5.3300949823815017E+01
           SIGMA     3.3726840000000000E+00
         &END LENNARD-JONES
         &LENNARD-JONES
           ATOMS NTF HGA3
           EPSILON     3.5934864302479518E+01
           SIGMA     2.8504390000000006E+00
         &END LENNARD-JONES
         &LENNARD-JONES
           ATOMS NTF HGA2
           EPSILON     3.5934864302479518E+01
           SIGMA     2.8504390000000006E+00
         &END LENNARD-JONES
         &LENNARD-JONES
           ATOMS NTF LIT
           EPSILON     2.8049423557207785E+01
           SIGMA     2.6288730000000000E+00
         &END LENNARD-JONES
         &LENNARD-JONES
           ATOMS NTF FTF
           EPSILON     4.7765541515072897E+01
           SIGMA     3.0963720000000006E+00
         &END LENNARD-JONES
         &LENNARD-JONES
           ATOMS NTF CTF
           EPSILON     5.3300949823815017E+01
           SIGMA     3.3726840000000000E+00
         &END LENNARD-JONES
         &LENNARD-JONES
           ATOMS NTF STF
           EPSILON     1.0374361608457048E+02
           SIGMA     3.3966940000000005E+00
         &END LENNARD-JONES
         &LENNARD-JONES
           ATOMS NTF OTF
           EPSILON     9.5078185986703261E+01
           SIGMA     3.1016100000000000E+00
         &END LENNARD-JONES
         &LENNARD-JONES
           ATOMS NTF NTF
           EPSILON     8.5547219316923659E+01
           SIGMA     3.2499990000000003E+00
         &END LENNARD-JONES
       &END NONBONDED
       &NONBONDED14
         &LENNARD-JONES
           ATOMS CG331 CG331
           EPSILON     3.3212449852452714E+01
           SIGMA     3.5000030000000000E+00
         &END LENNARD-JONES
         &LENNARD-JONES
           ATOMS OG301 CG331
           EPSILON     4.8369404239662948E+01
           SIGMA     3.1859070000000003E+00
         &END LENNARD-JONES
         &LENNARD-JONES
           ATOMS OG301 OG301
           EPSILON     7.0450651202172423E+01
           SIGMA     2.9000000000000004E+00
         &END LENNARD-JONES
         &LENNARD-JONES
           ATOMS CG321 CG331
           EPSILON     3.3212449852452714E+01
           SIGMA     3.5000030000000000E+00
         &END LENNARD-JONES
         &LENNARD-JONES
           ATOMS CG321 OG301
           EPSILON     4.8369404239662948E+01
           SIGMA     3.1859070000000003E+00
         &END LENNARD-JONES
         &LENNARD-JONES
           ATOMS CG321 CG321
           EPSILON     3.3212449852452714E+01
           SIGMA     3.5000030000000000E+00
         &END LENNARD-JONES
         &LENNARD-JONES
           ATOMS HGA3 CG331
           EPSILON     2.2393242703547660E+01
           SIGMA     2.9580419999999998E+00
         &END LENNARD-JONES
         &LENNARD-JONES
           ATOMS HGA3 OG301
           EPSILON     3.2613619317234246E+01
           SIGMA     2.6925810000000001E+00
         &END LENNARD-JONES
         &LENNARD-JONES
           ATOMS HGA3 CG321
           EPSILON     2.2393242703547660E+01
           SIGMA     2.9580419999999998E+00
         &END LENNARD-JONES
         &LENNARD-JONES
           ATOMS HGA3 HGA3
           EPSILON     1.5096568114751232E+01
           SIGMA     2.5000040000000001E+00
         &END LENNARD-JONES
         &LENNARD-JONES
           ATOMS HGA2 CG331
           EPSILON     2.2393242703547660E+01
           SIGMA     2.9580419999999998E+00
         &END LENNARD-JONES
         &LENNARD-JONES
           ATOMS HGA2 OG301
           EPSILON     3.2613619317234246E+01
           SIGMA     2.6925810000000001E+00
         &END LENNARD-JONES
         &LENNARD-JONES
           ATOMS HGA2 CG321
           EPSILON     2.2393242703547660E+01
           SIGMA     2.9580419999999998E+00
         &END LENNARD-JONES
         &LENNARD-JONES
           ATOMS HGA2 HGA3
           EPSILON     1.5096568114751232E+01
           SIGMA     2.5000040000000001E+00
         &END LENNARD-JONES
         &LENNARD-JONES
           ATOMS HGA2 HGA2
           EPSILON     1.5096568114751232E+01
           SIGMA     2.5000040000000001E+00
         &END LENNARD-JONES
         &LENNARD-JONES
           ATOMS LIT CG331
           EPSILON     1.7476793687510341E+01
           SIGMA     2.7281100000000000E+00
         &END LENNARD-JONES
         &LENNARD-JONES
           ATOMS LIT OG301
           EPSILON     3.0316424869106264E+01
           SIGMA     2.4113639999999998E+00
         &END LENNARD-JONES
         &LENNARD-JONES
           ATOMS LIT CG321
           EPSILON     1.7476793687510341E+01
           SIGMA     2.7281100000000000E+00
         &END LENNARD-JONES
         &LENNARD-JONES
           ATOMS LIT HGA3
           EPSILON     1.1785387508249128E+01
           SIGMA     2.3056730000000001E+00
         &END LENNARD-JONES
         &LENNARD-JONES
           ATOMS LIT HGA2
           EPSILON     1.1785387508249128E+01
           SIGMA     2.3056730000000001E+00
         &END LENNARD-JONES
         &LENNARD-JONES
           ATOMS LIT LIT
           EPSILON     9.1988421712550839E+00
           SIGMA     2.1264509999999999E+00
         &END LENNARD-JONES
         &LENNARD-JONES
           ATOMS FTF CG331
           EPSILON     2.9760367943546260E+01
           SIGMA     3.2132580000000002E+00
         &END LENNARD-JONES
         &LENNARD-JONES
           ATOMS FTF OG301
           EPSILON     4.3347279246822360E+01
           SIGMA     2.9248920000000003E+00
         &END LENNARD-JONES
         &LENNARD-JONES
           ATOMS FTF CG321
           EPSILON     2.9760367943546260E+01
           SIGMA     3.2132580000000002E+00
         &END LENNARD-JONES
         &LENNARD-JONES
           ATOMS FTF HGA3
           EPSILON     2.0063339024504391E+01
           SIGMA     2.7157000000000000E+00
         &END LENNARD-JONES
         &LENNARD-JONES
           ATOMS FTF HGA2
           EPSILON     2.0063339024504391E+01
           SIGMA     2.7157000000000000E+00
         &END LENNARD-JONES
         &LENNARD-JONES
           ATOMS FTF LIT
           EPSILON     1.5665205513740196E+01
           SIGMA     2.5046010000000001E+00
         &END LENNARD-JONES
         &LENNARD-JONES
           ATOMS FTF FTF
           EPSILON     2.6670603669393842E+01
           SIGMA     2.9499970000000002E+00
         &END LENNARD-JONES
         &LENNARD-JONES
           ATOMS CTF CG331
           EPSILON     3.3212449852452714E+01
           SIGMA     3.5000030000000000E+00
         &END LENNARD-JONES
         &LENNARD-JONES
           ATOMS CTF OG301
           EPSILON     4.8369404239662948E+01
           SIGMA     3.1859070000000003E+00
         &END LENNARD-JONES
         &LENNARD-JONES
           ATOMS CTF CG321
           EPSILON     3.3212449852452714E+01
           SIGMA     3.5000030000000000E+00
         &END LENNARD-JONES
         &LENNARD-JONES
           ATOMS CTF HGA3
           EPSILON     2.2393242703547660E+01
           SIGMA     2.9580419999999998E+00
         &END LENNARD-JONES
         &LENNARD-JONES
           ATOMS CTF HGA2
           EPSILON     2.2393242703547660E+01
           SIGMA     2.9580419999999998E+00
         &END LENNARD-JONES
         &LENNARD-JONES
           ATOMS CTF LIT
           EPSILON     1.7476793687510341E+01
           SIGMA     2.7281100000000000E+00
         &END LENNARD-JONES
         &LENNARD-JONES
           ATOMS CTF FTF
           EPSILON     2.9760367943546260E+01
           SIGMA     3.2132580000000002E+00
         &END LENNARD-JONES
         &LENNARD-JONES
           ATOMS CTF CTF
           EPSILON     3.3212449852452714E+01
           SIGMA     3.5000030000000000E+00
         &END LENNARD-JONES
         &LENNARD-JONES
           ATOMS STF CG331
           EPSILON     6.4638472477993190E+01
           SIGMA     3.5249120000000000E+00
         &END LENNARD-JONES
         &LENNARD-JONES
           ATOMS STF OG301
           EPSILON     9.4142198763588681E+01
           SIGMA     3.2085810000000001E+00
         &END LENNARD-JONES
         &LENNARD-JONES
           ATOMS STF CG321
           EPSILON     6.4638472477993190E+01
           SIGMA     3.5249120000000000E+00
         &END LENNARD-JONES
         &LENNARD-JONES
           ATOMS STF HGA3
           EPSILON     4.3578759957915224E+01
           SIGMA     2.9790939999999999E+00
         &END LENNARD-JONES
         &LENNARD-JONES
           ATOMS STF HGA2
           EPSILON     4.3578759957915224E+01
           SIGMA     2.9790939999999999E+00
         &END LENNARD-JONES
         &LENNARD-JONES
           ATOMS STF LIT
           EPSILON     3.4017600151906102E+01
           SIGMA     2.7475230000000002E+00
         &END LENNARD-JONES
         &LENNARD-JONES
           ATOMS STF FTF
           EPSILON     5.7925531856300474E+01
           SIGMA     3.2361270000000006E+00
         &END LENNARD-JONES
         &LENNARD-JONES
           ATOMS STF CTF
           EPSILON     6.4638472477993190E+01
           SIGMA     3.5249120000000000E+00
         &END LENNARD-JONES
         &LENNARD-JONES
           ATOMS STF STF
           EPSILON     1.2580473428959360E+02
           SIGMA     3.5500000000000003E+00
         &END LENNARD-JONES
         &LENNARD-JONES
           ATOMS OTF CG331
           EPSILON     5.9243965471655414E+01
           SIGMA     3.2186919999999999E+00
         &END LENNARD-JONES
         &LENNARD-JONES
           ATOMS OTF OG301
           EPSILON     8.6281918965174881E+01
           SIGMA     2.9298449999999998E+00
         &END LENNARD-JONES
         &LENNARD-JONES
           ATOMS OTF CG321
           EPSILON     5.9243965471655414E+01
           SIGMA     3.2186919999999999E+00
         &END LENNARD-JONES
         &LENNARD-JONES
           ATOMS OTF HGA3
           EPSILON     3.9940487042260173E+01
           SIGMA     2.7202970000000004E+00
         &END LENNARD-JONES
         &LENNARD-JONES
           ATOMS OTF HGA2
           EPSILON     3.9940487042260173E+01
           SIGMA     2.7202970000000004E+00
         &END LENNARD-JONES
         &LENNARD-JONES
           ATOMS OTF LIT
           EPSILON     2.8856586732409820E+01
           SIGMA     2.3489030000000004E+00
         &END LENNARD-JONES
         &LENNARD-JONES
           ATOMS OTF FTF
           EPSILON     5.3089597870208493E+01
           SIGMA     2.9549949999999998E+00
         &END LENNARD-JONES
         &LENNARD-JONES
           ATOMS OTF CTF
           EPSILON     5.9243965471655414E+01
           SIGMA     3.2186919999999999E+00
         &END LENNARD-JONES
         &LENNARD-JONES
           ATOMS OTF STF
           EPSILON     1.1530255507109831E+02
           SIGMA     3.2416060000000000E+00
         &END LENNARD-JONES
         &LENNARD-JONES
           ATOMS OTF OTF
           EPSILON     1.0567597680325862E+02
           SIGMA     2.9600019999999998E+00
         &END LENNARD-JONES
         &LENNARD-JONES
           ATOMS NTF CG331
           EPSILON     5.3300949823815017E+01
           SIGMA     3.3726840000000000E+00
         &END LENNARD-JONES
         &LENNARD-JONES
           ATOMS NTF OG301
           EPSILON     7.7631585435422409E+01
           SIGMA     3.0700189999999998E+00
         &END LENNARD-JONES
         &LENNARD-JONES
           ATOMS NTF CG321
           EPSILON     5.3300949823815017E+01
           SIGMA     3.3726840000000000E+00
         &END LENNARD-JONES
         &LENNARD-JONES
           ATOMS NTF HGA3
           EPSILON     3.5934864302479518E+01
           SIGMA     2.8504390000000006E+00
         &END LENNARD-JONES
         &LENNARD-JONES
           ATOMS NTF HGA2
           EPSILON     3.5934864302479518E+01
           SIGMA     2.8504390000000006E+00
         &END LENNARD-JONES
         &LENNARD-JONES
           ATOMS NTF LIT
           EPSILON     2.8049423557207785E+01
           SIGMA     2.6288730000000000E+00
         &END LENNARD-JONES
         &LENNARD-JONES
           ATOMS NTF FTF
           EPSILON     4.7765541515072897E+01
           SIGMA     3.0963720000000006E+00
         &END LENNARD-JONES
         &LENNARD-JONES
           ATOMS NTF CTF
           EPSILON     5.3300949823815017E+01
           SIGMA     3.3726840000000000E+00
         &END LENNARD-JONES
         &LENNARD-JONES
           ATOMS NTF STF
           EPSILON     1.0374361608457048E+02
           SIGMA     3.3966940000000005E+00
         &END LENNARD-JONES
         &LENNARD-JONES
           ATOMS NTF OTF
           EPSILON     9.5078185986703261E+01
           SIGMA     3.1016100000000000E+00
         &END LENNARD-JONES
         &LENNARD-JONES
           ATOMS NTF NTF
           EPSILON     8.5547219316923659E+01
           SIGMA     3.2499990000000003E+00
         &END LENNARD-JONES
       &END NONBONDED14
       &BOND
         ATOMS OG301 CG331
         KIND  CHARMM
         K     1.4280123290064939E-01
         R0     2.6645138473687564E+00
       &END BOND
       &BOND
         ATOMS CG321 OG301
         KIND  CHARMM
         K     1.4280123290064939E-01
         R0     2.6645138473687564E+00
       &END BOND
       &BOND
         ATOMS CG321 CG321
         KIND  CHARMM
         K     1.1959603255429385E-01
         R0     2.8893912571821478E+00
       &END BOND
       &BOND
         ATOMS OG301 CG321
         KIND  CHARMM
         K     1.4280123290064939E-01
         R0     2.6645138473687564E+00
       &END BOND
       &BOND
         ATOMS HGA3 CG331
         KIND  CHARMM
         K     1.5172630995693998E-01
         R0     2.0598014848453507E+00
       &END BOND
       &BOND
         ATOMS HGA2 CG321
         KIND  CHARMM
         K     1.5172630995693998E-01
         R0     2.0598014848453507E+00
       &END BOND
       &BOND
         ATOMS NTF STF
         KIND  CHARMM
         K     1.6729164434311075E-01
         R0     2.9668700286304595E+00
       &END BOND
       &BOND
         ATOMS STF OTF
         KIND  CHARMM
         K     2.8429494201255223E-01
         R0     2.7155364529566692E+00
       &END BOND
       &BOND
         ATOMS STF CTF
         KIND  CHARMM
         K     1.0399053532136977E-01
         R0     3.4355221095860990E+00
       &END BOND
       &BOND
         ATOMS CTF FTF
         KIND  CHARMM
         K     1.9720850263579681E-01
         R0     2.5001076738077055E+00
       &END BOND
       &BEND
         ATOMS CG331 OG301 CG321
         KIND  CHARMM
         K     9.5616087073534112E-02
         THETA0     1.9111355309337910E+00
       &END BEND
       &BEND
         ATOMS OG301 CG321 CG321
         KIND  CHARMM
         K     7.9680072561278417E-02
         THETA0     1.9111355309337910E+00
       &END BEND
       &BEND
         ATOMS CG321 CG321 OG301
         KIND  CHARMM
         K     7.9680072561278417E-02
         THETA0     1.9111355309337910E+00
       &END BEND
       &BEND
         ATOMS CG321 OG301 CG321
         KIND  CHARMM
         K     9.5616087073534112E-02
         THETA0     1.9111355309337910E+00
       &END BEND
       &BEND
         ATOMS OG301 CG331 HGA3
         KIND  CHARMM
         K     5.5776050792894896E-02
         THETA0     1.9111355309337910E+00
       &END BEND
       &BEND
         ATOMS OG301 CG321 HGA2
         KIND  CHARMM
         K     5.5776050792894896E-02
         THETA0     1.9111355309337910E+00
       &END BEND
       &BEND
         ATOMS CG321 CG321 HGA2
         KIND  CHARMM
         K     5.9760054420958816E-02
         THETA0     1.9320794819577229E+00
       &END BEND
       &BEND
         ATOMS OG301 CG321 HGA2
         KIND  CHARMM
         K     5.5776050792894896E-02
         THETA0     1.9111355309337910E+00
       &END BEND
       &BEND
         ATOMS HGA3 CG331 HGA3
         KIND  CHARMM
         K     5.2588847890443761E-02
         THETA0     1.8814649336498872E+00
       &END BEND
       &BEND
         ATOMS HGA2 CG321 HGA2
         KIND  CHARMM